c read Graph
c width = 57
c time = 31 ms
c width = 4
c time = 59 ms
c width = 4
c time = 4938 ms
s td 64 5 68
b 1 1 2 18
b 2 2 3 18 19
b 3 15 16 33 34
b 4 3 18 19 35
b 5 15 33 34 51
b 6 35 36 53 54
b 7 50 51 66 67
b 8 3 4 5 21
b 9 5 6 7 23
b 10 7 8 9 25
b 11 9 10 11 27
b 12 11 12 13 29
b 13 13 14 15 31
b 14 3 19 20 35 36
b 15 3 20 35 36 54
b 16 3 20 36 37 54
b 17 3 20 21 37 54
b 18 3 5 21 37 54
b 19 5 21 37 38 54
b 20 5 21 22 38 54
b 21 5 22 38 54 55
b 22 5 22 38 39 55
b 23 5 22 23 39 55
b 24 5 7 23 39 55
b 25 7 23 39 55 56
b 26 7 23 39 40 56
b 27 7 23 24 40 56
b 28 7 24 40 56 57
b 29 7 24 40 41 57
b 30 7 24 25 41 57
b 31 7 9 25 41 57
b 32 9 25 41 57 58
b 33 9 25 41 42 58
b 34 9 25 26 42 58
b 35 9 26 42 58 59
b 36 9 26 42 43 59
b 37 9 26 27 43 59
b 38 9 11 27 43 59
b 39 11 27 43 59 60
b 40 11 27 43 44 60
b 41 11 27 28 44 60
b 42 11 28 44 60 61
b 43 11 28 44 45 61
b 44 11 28 29 45 61
b 45 11 13 29 45 61
b 46 13 29 45 61 62
b 47 13 29 45 46 62
b 48 13 29 30 46 62
b 49 13 30 46 62 63
b 50 13 30 46 47 63
b 51 13 30 31 47 63
b 52 13 15 31 47 63
b 53 15 31 47 63 64
b 54 15 31 47 48 64
b 55 15 31 32 48 64
b 56 15 32 48 64 65
b 57 15 32 48 49 65
b 58 15 32 33 49 65
b 59 15 33 49 51 65
b 60 33 49 50 51 65
b 61 49 50 51 65 66
b 62 51 67 68
b 63 35 52 53
b 64 16 17 34
1 2
2 4
3 64
3 5
4 14
5 59
6 63
6 15
7 62
7 61
8 18
9 24
10 31
11 38
12 45
13 52
14 15
15 16
16 17
17 18
18 19
19 20
20 21
21 22
22 23
23 24
24 25
25 26
26 27
27 28
28 29
29 30
30 31
31 32
32 33
33 34
34 35
35 36
36 37
37 38
38 39
39 40
40 41
41 42
42 43
43 44
44 45
45 46
46 47
47 48
48 49
49 50
50 51
51 52
52 53
53 54
54 55
55 56
56 57
57 58
58 59
59 60
60 61
